wcsp 100 3 501 512409557603043100
3 3 3 3 3 3 3 3 3 3 3 3 3 3 3 3 3 3 3 3 3 3 3 3 3 3 3 3 3 3 3 3 3 3 3 3 3 3 3 3 3 3 3 3 3 3 3 3 3 3 3 3 3 3 3 3 3 3 3 3 3 3 3 3 3 3 3 3 3 3 3 3 3 3 3 3 3 3 3 3 3 3 3 3 3 3 3 3 3 3 3 3 3 3 3 3 3 3 3 3
2 57 75 0 9
0 0 0
0 1 0
0 2 0
1 0 3
1 1 2
1 2 1
2 0 1
2 1 1
2 2 0
2 56 60 0 9
0 0 3
0 1 0
0 2 2
1 0 0
1 1 0
1 2 0
2 0 1
2 1 2
2 2 2
2 2 72 0 9
0 0 2
0 1 1
0 2 0
1 0 2
1 1 1
1 2 3
2 0 0
2 1 0
2 2 0
2 34 69 0 9
0 0 2
0 1 0
0 2 1
1 0 0
1 1 2
1 2 1
2 0 0
2 1 2
2 2 0
2 48 92 0 9
0 0 0
0 1 2
0 2 3
1 0 0
1 1 1
1 2 3
2 0 1
2 1 0
2 2 0
2 54 88 0 9
0 0 0
0 1 3
0 2 3
1 0 2
1 1 1
1 2 0
2 0 0
2 1 1
2 2 0
2 32 82 0 9
0 0 2
0 1 0
0 2 2
1 0 2
1 1 2
1 2 0
2 0 0
2 1 2
2 2 0
2 5 54 0 9
0 0 1
0 1 0
0 2 1
1 0 0
1 1 0
1 2 0
2 0 3
2 1 3
2 2 2
2 18 44 0 9
0 0 1
0 1 0
0 2 3
1 0 0
1 1 2
1 2 0
2 0 3
2 1 2
2 2 0
2 36 38 0 9
0 0 1
0 1 0
0 2 3
1 0 0
1 1 2
1 2 1
2 0 0
2 1 2
2 2 0
2 23 81 0 9
0 0 0
0 1 0
0 2 1
1 0 1
1 1 3
1 2 0
2 0 0
2 1 2
2 2 1
2 0 85 0 9
0 0 0
0 1 0
0 2 1
1 0 0
1 1 3
1 2 1
2 0 3
2 1 1
2 2 0
2 25 39 0 9
0 0 1
0 1 0
0 2 3
1 0 0
1 1 3
1 2 3
2 0 0
2 1 0
2 2 2
2 67 76 0 9
0 0 0
0 1 2
0 2 2
1 0 2
1 1 2
1 2 1
2 0 0
2 1 0
2 2 0
2 45 84 0 9
0 0 2
0 1 3
0 2 3
1 0 3
1 1 0
1 2 0
2 0 2
2 1 0
2 2 0
2 3 93 0 9
0 0 1
0 1 3
0 2 1
1 0 0
1 1 0
1 2 3
2 0 0
2 1 3
2 2 0
2 11 87 0 9
0 0 1
0 1 0
0 2 2
1 0 0
1 1 1
1 2 0
2 0 0
2 1 2
2 2 3
2 3 25 0 9
0 0 2
0 1 2
0 2 0
1 0 3
1 1 0
1 2 0
2 0 0
2 1 1
2 2 2
2 15 89 0 9
0 0 0
0 1 1
0 2 3
1 0 0
1 1 0
1 2 1
2 0 3
2 1 3
2 2 0
2 0 90 0 9
0 0 0
0 1 0
0 2 2
1 0 3
1 1 3
1 2 1
2 0 0
2 1 2
2 2 0
2 2 76 0 9
0 0 2
0 1 1
0 2 0
1 0 3
1 1 2
1 2 0
2 0 0
2 1 0
2 2 2
2 17 70 0 9
0 0 0
0 1 0
0 2 1
1 0 2
1 1 3
1 2 0
2 0 3
2 1 0
2 2 2
2 45 97 0 9
0 0 0
0 1 3
0 2 0
1 0 3
1 1 3
1 2 0
2 0 0
2 1 1
2 2 1
2 46 92 0 9
0 0 0
0 1 2
0 2 3
1 0 3
1 1 2
1 2 0
2 0 2
2 1 0
2 2 0
2 23 48 0 9
0 0 0
0 1 0
0 2 1
1 0 3
1 1 2
1 2 1
2 0 0
2 1 1
2 2 0
2 10 84 0 9
0 0 1
0 1 1
0 2 3
1 0 2
1 1 0
1 2 0
2 0 0
2 1 0
2 2 2
2 1 55 0 9
0 0 3
0 1 1
0 2 2
1 0 2
1 1 0
1 2 0
2 0 2
2 1 0
2 2 0
2 55 67 0 9
0 0 0
0 1 0
0 2 2
1 0 0
1 1 3
1 2 3
2 0 2
2 1 1
2 2 0
2 66 67 0 9
0 0 3
0 1 0
0 2 3
1 0 0
1 1 1
1 2 3
2 0 1
2 1 0
2 2 0
2 74 99 0 9
0 0 0
0 1 2
0 2 1
1 0 0
1 1 3
1 2 0
2 0 1
2 1 2
2 2 0
2 34 52 0 9
0 0 1
0 1 0
0 2 0
1 0 0
1 1 1
1 2 0
2 0 3
2 1 2
2 2 1
2 9 81 0 9
0 0 0
0 1 0
0 2 0
1 0 0
1 1 2
1 2 1
2 0 2
2 1 2
2 2 2
2 19 59 0 9
0 0 0
0 1 1
0 2 0
1 0 2
1 1 0
1 2 1
2 0 0
2 1 1
2 2 2
2 50 90 0 9
0 0 1
0 1 0
0 2 2
1 0 2
1 1 0
1 2 0
2 0 2
2 1 3
2 2 0
2 14 79 0 9
0 0 1
0 1 1
0 2 0
1 0 3
1 1 1
1 2 0
2 0 1
2 1 0
2 2 0
2 53 72 0 9
0 0 2
0 1 0
0 2 0
1 0 2
1 1 2
1 2 3
2 0 0
2 1 0
2 2 2
2 36 69 0 9
0 0 3
0 1 0
0 2 3
1 0 0
1 1 1
1 2 1
2 0 1
2 1 0
2 2 0
2 44 67 0 9
0 0 2
0 1 3
0 2 0
1 0 3
1 1 0
1 2 3
2 0 0
2 1 0
2 2 2
2 78 86 0 9
0 0 3
0 1 0
0 2 1
1 0 0
1 1 0
1 2 1
2 0 1
2 1 2
2 2 0
2 44 98 0 9
0 0 0
0 1 0
0 2 1
1 0 2
1 1 0
1 2 1
2 0 2
2 1 2
2 2 0
2 81 87 0 9
0 0 3
0 1 0
0 2 1
1 0 3
1 1 0
1 2 0
2 0 0
2 1 1
2 2 3
2 72 79 0 9
0 0 2
0 1 0
0 2 3
1 0 0
1 1 2
1 2 0
2 0 2
2 1 0
2 2 2
2 58 83 0 9
0 0 0
0 1 2
0 2 0
1 0 2
1 1 0
1 2 3
2 0 2
2 1 0
2 2 1
2 15 86 0 9
0 0 3
0 1 0
0 2 2
1 0 1
1 1 0
1 2 3
2 0 0
2 1 0
2 2 2
2 60 63 0 9
0 0 3
0 1 2
0 2 1
1 0 0
1 1 0
1 2 0
2 0 2
2 1 0
2 2 1
2 7 12 0 9
0 0 0
0 1 3
0 2 0
1 0 2
1 1 2
1 2 3
2 0 0
2 1 0
2 2 3
2 66 83 0 9
0 0 0
0 1 0
0 2 2
1 0 0
1 1 2
1 2 1
2 0 3
2 1 0
2 2 1
2 32 37 0 9
0 0 1
0 1 3
0 2 1
1 0 1
1 1 2
1 2 0
2 0 0
2 1 0
2 2 0
2 18 95 0 9
0 0 0
0 1 2
0 2 0
1 0 0
1 1 2
1 2 1
2 0 0
2 1 2
2 2 1
2 6 85 0 9
0 0 0
0 1 0
0 2 0
1 0 1
1 1 0
1 2 2
2 0 3
2 1 1
2 2 2
2 43 68 0 9
0 0 0
0 1 3
0 2 0
1 0 3
1 1 1
1 2 0
2 0 0
2 1 3
2 2 2
2 35 48 0 9
0 0 0
0 1 0
0 2 3
1 0 1
1 1 3
1 2 0
2 0 3
2 1 0
2 2 3
2 87 92 0 9
0 0 2
0 1 3
0 2 0
1 0 3
1 1 0
1 2 0
2 0 2
2 1 0
2 2 3
2 57 65 0 9
0 0 1
0 1 1
0 2 0
1 0 0
1 1 2
1 2 1
2 0 1
2 1 0
2 2 0
2 6 98 0 9
0 0 2
0 1 2
0 2 2
1 0 0
1 1 0
1 2 2
2 0 0
2 1 1
2 2 0
2 65 66 0 9
0 0 3
0 1 3
0 2 0
1 0 0
1 1 0
1 2 3
2 0 3
2 1 1
2 2 0
2 56 82 0 9
0 0 2
0 1 3
0 2 2
1 0 2
1 1 0
1 2 2
2 0 0
2 1 0
2 2 0
2 9 54 0 9
0 0 2
0 1 0
0 2 0
1 0 2
1 1 0
1 2 3
2 0 3
2 1 2
2 2 0
2 2 36 0 9
0 0 3
0 1 0
0 2 3
1 0 2
1 1 1
1 2 0
2 0 0
2 1 1
2 2 0
2 1 87 0 9
0 0 1
0 1 2
0 2 2
1 0 0
1 1 0
1 2 3
2 0 2
2 1 0
2 2 0
2 21 41 0 9
0 0 2
0 1 0
0 2 2
1 0 0
1 1 2
1 2 0
2 0 0
2 1 1
2 2 1
2 92 99 0 9
0 0 1
0 1 2
0 2 1
1 0 0
1 1 0
1 2 2
2 0 2
2 1 0
2 2 0
2 14 70 0 9
0 0 1
0 1 3
0 2 0
1 0 1
1 1 0
1 2 2
2 0 2
2 1 0
2 2 0
2 36 40 0 9
0 0 2
0 1 0
0 2 3
1 0 1
1 1 3
1 2 0
2 0 0
2 1 0
2 2 3
2 17 41 0 9
0 0 1
0 1 0
0 2 0
1 0 0
1 1 0
1 2 1
2 0 3
2 1 2
2 2 2
2 15 64 0 9
0 0 0
0 1 3
0 2 0
1 0 3
1 1 2
1 2 3
2 0 0
2 1 0
2 2 2
2 37 69 0 9
0 0 1
0 1 0
0 2 2
1 0 1
1 1 2
1 2 0
2 0 1
2 1 0
2 2 0
2 12 30 0 9
0 0 1
0 1 2
0 2 0
1 0 3
1 1 0
1 2 0
2 0 3
2 1 1
2 2 0
2 91 98 0 9
0 0 0
0 1 1
0 2 3
1 0 1
1 1 0
1 2 0
2 0 2
2 1 3
2 2 0
2 18 62 0 9
0 0 0
0 1 1
0 2 2
1 0 3
1 1 0
1 2 0
2 0 0
2 1 3
2 2 3
2 12 79 0 9
0 0 2
0 1 2
0 2 2
1 0 1
1 1 0
1 2 0
2 0 2
2 1 0
2 2 0
2 9 42 0 9
0 0 0
0 1 0
0 2 3
1 0 1
1 1 2
1 2 2
2 0 2
2 1 0
2 2 0
2 23 26 0 9
0 0 3
0 1 0
0 2 2
1 0 0
1 1 2
1 2 1
2 0 0
2 1 3
2 2 0
2 31 95 0 9
0 0 1
0 1 3
0 2 0
1 0 3
1 1 0
1 2 1
2 0 0
2 1 2
2 2 0
2 26 87 0 9
0 0 0
0 1 0
0 2 1
1 0 0
1 1 2
1 2 0
2 0 3
2 1 1
2 2 1
2 48 75 0 9
0 0 0
0 1 0
0 2 1
1 0 3
1 1 0
1 2 3
2 0 2
2 1 1
2 2 0
2 55 72 0 9
0 0 0
0 1 0
0 2 0
1 0 1
1 1 2
1 2 1
2 0 0
2 1 2
2 2 2
2 16 69 0 9
0 0 3
0 1 2
0 2 0
1 0 1
1 1 1
1 2 2
2 0 0
2 1 0
2 2 0
2 75 79 0 9
0 0 0
0 1 2
0 2 0
1 0 1
1 1 3
1 2 2
2 0 0
2 1 0
2 2 3
2 2 67 0 9
0 0 0
0 1 0
0 2 1
1 0 0
1 1 2
1 2 1
2 0 3
2 1 0
2 2 1
2 19 38 0 9
0 0 0
0 1 0
0 2 0
1 0 2
1 1 1
1 2 2
2 0 0
2 1 2
2 2 2
2 86 93 0 9
0 0 1
0 1 0
0 2 0
1 0 2
1 1 0
1 2 0
2 0 3
2 1 1
2 2 2
2 6 75 0 9
0 0 0
0 1 1
0 2 1
1 0 3
1 1 0
1 2 0
2 0 0
2 1 2
2 2 2
2 47 84 0 9
0 0 1
0 1 0
0 2 0
1 0 3
1 1 2
1 2 2
2 0 0
2 1 2
2 2 0
2 12 87 0 9
0 0 0
0 1 1
0 2 0
1 0 2
1 1 0
1 2 1
2 0 3
2 1 0
2 2 3
2 9 10 0 9
0 0 2
0 1 3
0 2 0
1 0 0
1 1 0
1 2 2
2 0 2
2 1 1
2 2 0
2 32 93 0 9
0 0 2
0 1 3
0 2 1
1 0 0
1 1 3
1 2 0
2 0 0
2 1 0
2 2 2
2 2 13 0 9
0 0 0
0 1 0
0 2 1
1 0 0
1 1 1
1 2 0
2 0 3
2 1 3
2 2 1
2 0 47 0 9
0 0 0
0 1 3
0 2 3
1 0 1
1 1 2
1 2 0
2 0 3
2 1 0
2 2 0
2 23 41 0 9
0 0 0
0 1 1
0 2 0
1 0 1
1 1 3
1 2 0
2 0 0
2 1 1
2 2 1
2 26 32 0 9
0 0 3
0 1 0
0 2 3
1 0 0
1 1 3
1 2 0
2 0 2
2 1 0
2 2 3
2 54 96 0 9
0 0 2
0 1 3
0 2 1
1 0 3
1 1 0
1 2 0
2 0 0
2 1 1
2 2 0
2 43 84 0 9
0 0 1
0 1 1
0 2 0
1 0 0
1 1 0
1 2 1
2 0 2
2 1 2
2 2 0
2 63 66 0 9
0 0 0
0 1 0
0 2 3
1 0 3
1 1 0
1 2 0
2 0 2
2 1 1
2 2 1
2 24 85 0 9
0 0 0
0 1 0
0 2 0
1 0 2
1 1 2
1 2 2
2 0 0
2 1 3
2 2 1
2 3 71 0 9
0 0 0
0 1 2
0 2 0
1 0 2
1 1 2
1 2 1
2 0 0
2 1 1
2 2 0
2 41 64 0 9
0 0 1
0 1 0
0 2 2
1 0 0
1 1 3
1 2 0
2 0 0
2 1 2
2 2 3
2 11 44 0 9
0 0 2
0 1 0
0 2 1
1 0 0
1 1 1
1 2 2
2 0 0
2 1 0
2 2 1
2 30 46 0 9
0 0 2
0 1 0
0 2 0
1 0 3
1 1 3
1 2 3
2 0 2
2 1 0
2 2 0
2 64 79 0 9
0 0 0
0 1 3
0 2 0
1 0 0
1 1 1
1 2 1
2 0 0
2 1 3
2 2 2
2 37 58 0 9
0 0 0
0 1 1
0 2 2
1 0 1
1 1 0
1 2 2
2 0 0
2 1 2
2 2 0
2 42 52 0 9
0 0 3
0 1 1
0 2 0
1 0 2
1 1 0
1 2 3
2 0 3
2 1 0
2 2 0
2 60 92 0 9
0 0 1
0 1 2
0 2 0
1 0 0
1 1 2
1 2 0
2 0 1
2 1 0
2 2 3
2 26 41 0 9
0 0 0
0 1 0
0 2 3
1 0 2
1 1 2
1 2 1
2 0 0
2 1 2
2 2 0
2 19 24 0 9
0 0 2
0 1 0
0 2 1
1 0 0
1 1 1
1 2 3
2 0 0
2 1 1
2 2 0
2 33 73 0 9
0 0 2
0 1 2
0 2 0
1 0 0
1 1 2
1 2 0
2 0 0
2 1 2
2 2 1
2 74 86 0 9
0 0 0
0 1 3
0 2 2
1 0 3
1 1 0
1 2 0
2 0 1
2 1 3
2 2 0
2 1 11 0 9
0 0 3
0 1 3
0 2 1
1 0 0
1 1 0
1 2 1
2 0 2
2 1 0
2 2 0
2 42 97 0 9
0 0 2
0 1 1
0 2 2
1 0 0
1 1 0
1 2 0
2 0 1
2 1 0
2 2 3
2 56 73 0 9
0 0 2
0 1 3
0 2 0
1 0 0
1 1 2
1 2 3
2 0 2
2 1 0
2 2 0
2 42 98 0 9
0 0 3
0 1 1
0 2 2
1 0 0
1 1 0
1 2 0
2 0 0
2 1 1
2 2 2
2 11 48 0 9
0 0 1
0 1 0
0 2 0
1 0 1
1 1 3
1 2 1
2 0 2
2 1 0
2 2 0
2 0 69 0 9
0 0 0
0 1 1
0 2 0
1 0 1
1 1 1
1 2 0
2 0 3
2 1 3
2 2 0
2 89 99 0 9
0 0 0
0 1 0
0 2 2
1 0 0
1 1 3
1 2 2
2 0 2
2 1 0
2 2 2
2 48 86 0 9
0 0 0
0 1 0
0 2 3
1 0 0
1 1 0
1 2 2
2 0 1
2 1 2
2 2 1
2 40 41 0 9
0 0 0
0 1 0
0 2 3
1 0 0
1 1 3
1 2 0
2 0 3
2 1 3
2 2 1
2 46 63 0 9
0 0 0
0 1 1
0 2 0
1 0 3
1 1 1
1 2 3
2 0 0
2 1 2
2 2 0
2 43 63 0 9
0 0 0
0 1 2
0 2 3
1 0 0
1 1 3
1 2 1
2 0 0
2 1 0
2 2 1
2 61 86 0 9
0 0 2
0 1 2
0 2 3
1 0 0
1 1 0
1 2 1
2 0 1
2 1 0
2 2 0
2 5 88 0 9
0 0 1
0 1 0
0 2 0
1 0 0
1 1 3
1 2 0
2 0 3
2 1 1
2 2 3
2 46 48 0 9
0 0 2
0 1 3
0 2 0
1 0 0
1 1 0
1 2 3
2 0 2
2 1 1
2 2 0
2 19 33 0 9
0 0 0
0 1 1
0 2 0
1 0 1
1 1 1
1 2 0
2 0 3
2 1 0
2 2 1
2 30 56 0 9
0 0 0
0 1 2
0 2 3
1 0 0
1 1 1
1 2 0
2 0 1
2 1 0
2 2 2
2 21 57 0 9
0 0 0
0 1 2
0 2 2
1 0 1
1 1 0
1 2 2
2 0 0
2 1 0
2 2 1
2 51 97 0 9
0 0 0
0 1 1
0 2 0
1 0 0
1 1 0
1 2 2
2 0 1
2 1 2
2 2 3
2 12 62 0 9
0 0 2
0 1 0
0 2 0
1 0 1
1 1 3
1 2 3
2 0 1
2 1 0
2 2 0
2 6 19 0 9
0 0 0
0 1 3
0 2 1
1 0 0
1 1 0
1 2 0
2 0 2
2 1 3
2 2 1
2 32 50 0 9
0 0 1
0 1 2
0 2 0
1 0 1
1 1 0
1 2 0
2 0 2
2 1 3
2 2 0
2 22 36 0 9
0 0 3
0 1 1
0 2 0
1 0 0
1 1 3
1 2 3
2 0 1
2 1 0
2 2 0
2 29 30 0 9
0 0 1
0 1 0
0 2 1
1 0 2
1 1 1
1 2 0
2 0 0
2 1 0
2 2 3
2 25 72 0 9
0 0 0
0 1 3
0 2 0
1 0 3
1 1 1
1 2 3
2 0 0
2 1 2
2 2 0
2 27 76 0 9
0 0 0
0 1 3
0 2 0
1 0 3
1 1 0
1 2 3
2 0 1
2 1 3
2 2 0
2 56 97 0 9
0 0 3
0 1 3
0 2 0
1 0 2
1 1 2
1 2 0
2 0 0
2 1 3
2 2 0
2 69 87 0 9
0 0 3
0 1 0
0 2 2
1 0 0
1 1 0
1 2 2
2 0 1
2 1 1
2 2 0
2 13 67 0 9
0 0 0
0 1 1
0 2 3
1 0 1
1 1 0
1 2 0
2 0 0
2 1 2
2 2 3
2 15 47 0 9
0 0 0
0 1 0
0 2 0
1 0 2
1 1 2
1 2 3
2 0 0
2 1 1
2 2 1
2 8 91 0 9
0 0 3
0 1 1
0 2 2
1 0 1
1 1 0
1 2 0
2 0 3
2 1 0
2 2 0
2 9 98 0 9
0 0 0
0 1 0
0 2 2
1 0 3
1 1 1
1 2 3
2 0 0
2 1 2
2 2 0
2 43 96 0 9
0 0 0
0 1 1
0 2 3
1 0 0
1 1 1
1 2 0
2 0 1
2 1 3
2 2 0
2 4 9 0 9
0 0 2
0 1 0
0 2 2
1 0 0
1 1 3
1 2 0
2 0 0
2 1 3
2 2 3
2 45 53 0 9
0 0 1
0 1 0
0 2 0
1 0 3
1 1 2
1 2 0
2 0 0
2 1 1
2 2 3
2 16 79 0 9
0 0 0
0 1 0
0 2 3
1 0 0
1 1 0
1 2 2
2 0 3
2 1 3
2 2 2
2 73 87 0 9
0 0 0
0 1 1
0 2 0
1 0 2
1 1 0
1 2 0
2 0 1
2 1 3
2 2 3
2 12 91 0 9
0 0 2
0 1 3
0 2 0
1 0 0
1 1 3
1 2 0
2 0 1
2 1 0
2 2 2
2 52 53 0 9
0 0 0
0 1 2
0 2 2
1 0 2
1 1 2
1 2 0
2 0 0
2 1 2
2 2 0
2 64 71 0 9
0 0 3
0 1 2
0 2 1
1 0 0
1 1 1
1 2 0
2 0 1
2 1 0
2 2 0
2 64 76 0 9
0 0 0
0 1 0
0 2 3
1 0 0
1 1 2
1 2 2
2 0 2
2 1 0
2 2 3
2 50 82 0 9
0 0 2
0 1 0
0 2 0
1 0 0
1 1 1
1 2 0
2 0 3
2 1 1
2 2 3
2 66 92 0 9
0 0 0
0 1 1
0 2 0
1 0 0
1 1 1
1 2 3
2 0 2
2 1 2
2 2 0
2 53 91 0 9
0 0 3
0 1 1
0 2 0
1 0 2
1 1 0
1 2 0
2 0 0
2 1 1
2 2 3
2 6 25 0 9
0 0 0
0 1 0
0 2 3
1 0 0
1 1 3
1 2 2
2 0 0
2 1 3
2 2 3
2 15 57 0 9
0 0 0
0 1 1
0 2 3
1 0 2
1 1 0
1 2 0
2 0 0
2 1 2
2 2 3
2 51 76 0 9
0 0 2
0 1 1
0 2 0
1 0 3
1 1 0
1 2 0
2 0 0
2 1 1
2 2 3
2 88 99 0 9
0 0 3
0 1 1
0 2 3
1 0 0
1 1 0
1 2 0
2 0 1
2 1 0
2 2 2
2 68 73 0 9
0 0 2
0 1 2
0 2 0
1 0 0
1 1 3
1 2 0
2 0 2
2 1 2
2 2 0
2 9 36 0 9
0 0 0
0 1 1
0 2 0
1 0 2
1 1 0
1 2 2
2 0 0
2 1 2
2 2 3
2 52 77 0 9
0 0 2
0 1 2
0 2 0
1 0 3
1 1 3
1 2 3
2 0 0
2 1 0
2 2 0
2 38 59 0 9
0 0 0
0 1 2
0 2 0
1 0 1
1 1 2
1 2 1
2 0 3
2 1 0
2 2 0
2 15 55 0 9
0 0 2
0 1 3
0 2 0
1 0 1
1 1 2
1 2 0
2 0 2
2 1 0
2 2 0
2 0 94 0 9
0 0 2
0 1 0
0 2 0
1 0 3
1 1 1
1 2 1
2 0 0
2 1 3
2 2 0
2 7 56 0 9
0 0 1
0 1 0
0 2 0
1 0 0
1 1 1
1 2 3
2 0 0
2 1 1
2 2 1
2 5 32 0 9
0 0 0
0 1 0
0 2 1
1 0 1
1 1 0
1 2 2
2 0 2
2 1 1
2 2 0
2 53 55 0 9
0 0 0
0 1 3
0 2 0
1 0 2
1 1 3
1 2 0
2 0 2
2 1 0
2 2 3
2 13 17 0 9
0 0 1
0 1 0
0 2 0
1 0 3
1 1 1
1 2 0
2 0 2
2 1 3
2 2 0
2 52 97 0 9
0 0 2
0 1 2
0 2 0
1 0 0
1 1 0
1 2 3
2 0 1
2 1 0
2 2 2
2 11 96 0 9
0 0 3
0 1 0
0 2 1
1 0 0
1 1 2
1 2 1
2 0 0
2 1 0
2 2 3
2 38 82 0 9
0 0 2
0 1 2
0 2 3
1 0 3
1 1 2
1 2 0
2 0 0
2 1 0
2 2 0
2 35 67 0 9
0 0 0
0 1 1
0 2 3
1 0 0
1 1 0
1 2 3
2 0 0
2 1 2
2 2 3
2 5 92 0 9
0 0 0
0 1 2
0 2 0
1 0 3
1 1 2
1 2 0
2 0 3
2 1 3
2 2 0
2 32 61 0 9
0 0 0
0 1 0
0 2 3
1 0 3
1 1 3
1 2 3
2 0 1
2 1 0
2 2 0
2 21 68 0 9
0 0 0
0 1 1
0 2 1
1 0 0
1 1 2
1 2 1
2 0 1
2 1 0
2 2 0
2 45 55 0 9
0 0 2
0 1 3
0 2 2
1 0 0
1 1 0
1 2 1
2 0 1
2 1 0
2 2 0
2 59 98 0 9
0 0 1
0 1 0
0 2 0
1 0 0
1 1 2
1 2 3
2 0 2
2 1 0
2 2 3
2 44 61 0 9
0 0 1
0 1 0
0 2 2
1 0 0
1 1 1
1 2 1
2 0 0
2 1 0
2 2 1
2 46 50 0 9
0 0 2
0 1 0
0 2 2
1 0 0
1 1 0
1 2 1
2 0 1
2 1 3
2 2 0
2 27 47 0 9
0 0 0
0 1 2
0 2 1
1 0 0
1 1 0
1 2 3
2 0 2
2 1 0
2 2 2
2 42 43 0 9
0 0 1
0 1 2
0 2 0
1 0 0
1 1 0
1 2 3
2 0 1
2 1 2
2 2 0
2 15 37 0 9
0 0 3
0 1 1
0 2 0
1 0 3
1 1 1
1 2 0
2 0 3
2 1 0
2 2 0
2 64 99 0 9
0 0 0
0 1 2
0 2 0
1 0 0
1 1 2
1 2 0
2 0 2
2 1 2
2 2 1
2 18 90 0 9
0 0 0
0 1 3
0 2 2
1 0 0
1 1 0
1 2 2
2 0 3
2 1 0
2 2 2
2 32 66 0 9
0 0 1
0 1 3
0 2 2
1 0 0
1 1 0
1 2 2
2 0 2
2 1 0
2 2 0
2 36 72 0 9
0 0 0
0 1 1
0 2 3
1 0 3
1 1 0
1 2 3
2 0 1
2 1 0
2 2 0
2 56 94 0 9
0 0 2
0 1 3
0 2 0
1 0 2
1 1 0
1 2 0
2 0 2
2 1 0
2 2 2
2 21 29 0 9
0 0 0
0 1 0
0 2 0
1 0 0
1 1 1
1 2 2
2 0 3
2 1 3
2 2 3
2 7 15 0 9
0 0 2
0 1 2
0 2 0
1 0 0
1 1 2
1 2 0
2 0 0
2 1 2
2 2 1
2 30 75 0 9
0 0 1
0 1 0
0 2 3
1 0 1
1 1 0
1 2 0
2 0 0
2 1 1
2 2 1
2 3 63 0 9
0 0 1
0 1 3
0 2 0
1 0 2
1 1 0
1 2 0
2 0 2
2 1 3
2 2 0
2 5 94 0 9
0 0 3
0 1 0
0 2 1
1 0 0
1 1 1
1 2 0
2 0 1
2 1 0
2 2 1
2 3 95 0 9
0 0 3
0 1 0
0 2 3
1 0 3
1 1 0
1 2 1
2 0 0
2 1 0
2 2 2
2 24 35 0 9
0 0 2
0 1 0
0 2 0
1 0 3
1 1 3
1 2 1
2 0 3
2 1 0
2 2 0
2 3 32 0 9
0 0 2
0 1 0
0 2 0
1 0 2
1 1 0
1 2 0
2 0 2
2 1 3
2 2 2
2 34 46 0 9
0 0 0
0 1 1
0 2 1
1 0 0
1 1 0
1 2 0
2 0 2
2 1 2
2 2 1
2 4 60 0 9
0 0 0
0 1 2
0 2 1
1 0 0
1 1 0
1 2 3
2 0 2
2 1 0
2 2 1
2 45 96 0 9
0 0 0
0 1 1
0 2 1
1 0 0
1 1 3
1 2 0
2 0 0
2 1 1
2 2 3
2 24 36 0 9
0 0 2
0 1 3
0 2 0
1 0 0
1 1 2
1 2 0
2 0 0
2 1 3
2 2 3
2 19 78 0 9
0 0 1
0 1 2
0 2 0
1 0 0
1 1 2
1 2 0
2 0 3
2 1 3
2 2 0
2 24 77 0 9
0 0 0
0 1 0
0 2 3
1 0 0
1 1 3
1 2 2
2 0 1
2 1 0
2 2 2
2 28 72 0 9
0 0 0
0 1 3
0 2 1
1 0 1
1 1 0
1 2 2
2 0 0
2 1 0
2 2 1
2 35 44 0 9
0 0 0
0 1 1
0 2 0
1 0 2
1 1 3
1 2 2
2 0 0
2 1 0
2 2 3
2 31 55 0 9
0 0 1
0 1 0
0 2 3
1 0 3
1 1 1
1 2 0
2 0 0
2 1 0
2 2 2
2 7 29 0 9
0 0 0
0 1 0
0 2 3
1 0 3
1 1 0
1 2 1
2 0 3
2 1 1
2 2 0
2 55 58 0 9
0 0 0
0 1 1
0 2 1
1 0 0
1 1 0
1 2 3
2 0 0
2 1 3
2 2 2
2 11 60 0 9
0 0 3
0 1 0
0 2 2
1 0 0
1 1 0
1 2 1
2 0 2
2 1 3
2 2 0
2 45 60 0 9
0 0 0
0 1 1
0 2 0
1 0 3
1 1 0
1 2 3
2 0 3
2 1 0
2 2 3
2 16 54 0 9
0 0 2
0 1 1
0 2 1
1 0 2
1 1 0
1 2 3
2 0 0
2 1 0
2 2 0
2 80 87 0 9
0 0 0
0 1 2
0 2 0
1 0 1
1 1 0
1 2 2
2 0 2
2 1 3
2 2 0
2 6 23 0 9
0 0 2
0 1 2
0 2 2
1 0 3
1 1 0
1 2 0
2 0 0
2 1 3
2 2 0
2 23 83 0 9
0 0 3
0 1 0
0 2 0
1 0 0
1 1 3
1 2 2
2 0 1
2 1 0
2 2 3
2 61 88 0 9
0 0 2
0 1 0
0 2 3
1 0 1
1 1 0
1 2 1
2 0 0
2 1 0
2 2 1
2 25 40 0 9
0 0 1
0 1 0
0 2 3
1 0 3
1 1 0
1 2 3
2 0 0
2 1 0
2 2 2
2 33 46 0 9
0 0 2
0 1 1
0 2 0
1 0 0
1 1 0
1 2 2
2 0 0
2 1 2
2 2 3
2 8 31 0 9
0 0 3
0 1 3
0 2 0
1 0 0
1 1 0
1 2 0
2 0 1
2 1 3
2 2 3
2 33 74 0 9
0 0 0
0 1 0
0 2 1
1 0 0
1 1 1
1 2 3
2 0 2
2 1 2
2 2 0
2 13 40 0 9
0 0 0
0 1 0
0 2 3
1 0 0
1 1 1
1 2 1
2 0 0
2 1 1
2 2 3
2 31 54 0 9
0 0 0
0 1 1
0 2 0
1 0 0
1 1 0
1 2 2
2 0 2
2 1 2
2 2 3
2 31 89 0 9
0 0 0
0 1 0
0 2 2
1 0 0
1 1 1
1 2 3
2 0 1
2 1 2
2 2 0
2 36 62 0 9
0 0 2
0 1 0
0 2 0
1 0 3
1 1 0
1 2 0
2 0 3
2 1 2
2 2 3
2 36 81 0 9
0 0 2
0 1 1
0 2 0
1 0 0
1 1 3
1 2 3
2 0 0
2 1 0
2 2 2
2 16 38 0 9
0 0 1
0 1 0
0 2 3
1 0 0
1 1 1
1 2 1
2 0 0
2 1 0
2 2 2
2 13 53 0 9
0 0 1
0 1 2
0 2 2
1 0 0
1 1 0
1 2 2
2 0 3
2 1 0
2 2 0
2 26 82 0 9
0 0 3
0 1 0
0 2 0
1 0 2
1 1 0
1 2 3
2 0 0
2 1 2
2 2 1
2 21 58 0 9
0 0 2
0 1 0
0 2 3
1 0 0
1 1 3
1 2 3
2 0 0
2 1 0
2 2 1
2 38 46 0 9
0 0 0
0 1 0
0 2 3
1 0 2
1 1 2
1 2 1
2 0 0
2 1 0
2 2 1
2 25 36 0 9
0 0 0
0 1 1
0 2 0
1 0 0
1 1 1
1 2 3
2 0 0
2 1 1
2 2 1
2 27 31 0 9
0 0 3
0 1 0
0 2 1
1 0 0
1 1 2
1 2 0
2 0 3
2 1 0
2 2 1
2 59 66 0 9
0 0 3
0 1 0
0 2 0
1 0 0
1 1 2
1 2 3
2 0 0
2 1 3
2 2 2
2 35 60 0 9
0 0 0
0 1 1
0 2 3
1 0 0
1 1 2
1 2 0
2 0 3
2 1 0
2 2 2
2 64 84 0 9
0 0 0
0 1 0
0 2 1
1 0 1
1 1 3
1 2 0
2 0 1
2 1 0
2 2 2
2 18 94 0 9
0 0 1
0 1 1
0 2 3
1 0 0
1 1 3
1 2 0
2 0 3
2 1 0
2 2 0
2 38 76 0 9
0 0 3
0 1 2
0 2 1
1 0 3
1 1 1
1 2 0
2 0 0
2 1 0
2 2 0
2 69 72 0 9
0 0 1
0 1 2
0 2 0
1 0 1
1 1 0
1 2 0
2 0 1
2 1 0
2 2 1
2 0 92 0 9
0 0 3
0 1 0
0 2 0
1 0 0
1 1 0
1 2 3
2 0 1
2 1 2
2 2 2
2 89 96 0 9
0 0 1
0 1 0
0 2 1
1 0 0
1 1 2
1 2 2
2 0 0
2 1 2
2 2 0
2 70 89 0 9
0 0 0
0 1 1
0 2 1
1 0 1
1 1 0
1 2 2
2 0 2
2 1 0
2 2 0
2 41 67 0 9
0 0 2
0 1 0
0 2 0
1 0 3
1 1 2
1 2 1
2 0 0
2 1 2
2 2 0
2 44 57 0 9
0 0 2
0 1 0
0 2 2
1 0 1
1 1 0
1 2 0
2 0 0
2 1 2
2 2 1
2 48 76 0 9
0 0 0
0 1 2
0 2 3
1 0 0
1 1 0
1 2 1
2 0 1
2 1 0
2 2 3
2 73 75 0 9
0 0 1
0 1 2
0 2 0
1 0 2
1 1 0
1 2 1
2 0 1
2 1 0
2 2 0
2 28 35 0 9
0 0 0
0 1 2
0 2 3
1 0 0
1 1 0
1 2 1
2 0 1
2 1 0
2 2 2
2 22 76 0 9
0 0 2
0 1 0
0 2 0
1 0 3
1 1 3
1 2 0
2 0 0
2 1 2
2 2 2
2 34 42 0 9
0 0 2
0 1 0
0 2 3
1 0 0
1 1 0
1 2 2
2 0 3
2 1 0
2 2 3
2 43 75 0 9
0 0 0
0 1 0
0 2 1
1 0 0
1 1 2
1 2 0
2 0 1
2 1 2
2 2 1
2 22 79 0 9
0 0 0
0 1 0
0 2 3
1 0 2
1 1 0
1 2 0
2 0 1
2 1 2
2 2 1
2 76 95 0 9
0 0 1
0 1 0
0 2 3
1 0 2
1 1 3
1 2 0
2 0 2
2 1 0
2 2 0
2 42 88 0 9
0 0 0
0 1 0
0 2 0
1 0 1
1 1 1
1 2 1
2 0 2
2 1 0
2 2 1
2 53 69 0 9
0 0 2
0 1 2
0 2 0
1 0 0
1 1 3
1 2 3
2 0 3
2 1 0
2 2 0
2 11 89 0 9
0 0 0
0 1 1
0 2 2
1 0 1
1 1 2
1 2 0
2 0 0
2 1 2
2 2 0
2 60 89 0 9
0 0 2
0 1 1
0 2 0
1 0 1
1 1 0
1 2 1
2 0 3
2 1 0
2 2 0
2 11 40 0 9
0 0 3
0 1 0
0 2 1
1 0 0
1 1 0
1 2 0
2 0 3
2 1 3
2 2 2
2 10 81 0 9
0 0 2
0 1 1
0 2 0
1 0 1
1 1 1
1 2 0
2 0 0
2 1 0
2 2 3
2 57 74 0 9
0 0 0
0 1 1
0 2 0
1 0 1
1 1 2
1 2 0
2 0 2
2 1 0
2 2 2
2 67 93 0 9
0 0 3
0 1 0
0 2 0
1 0 0
1 1 2
1 2 2
2 0 3
2 1 0
2 2 1
2 67 72 0 9
0 0 3
0 1 2
0 2 0
1 0 2
1 1 0
1 2 0
2 0 0
2 1 1
2 2 2
2 44 83 0 9
0 0 1
0 1 2
0 2 0
1 0 1
1 1 2
1 2 0
2 0 0
2 1 2
2 2 0
2 33 84 0 9
0 0 3
0 1 0
0 2 0
1 0 0
1 1 2
1 2 1
2 0 0
2 1 2
2 2 3
2 25 85 0 9
0 0 0
0 1 0
0 2 0
1 0 1
1 1 2
1 2 0
2 0 1
2 1 1
2 2 3
2 62 95 0 9
0 0 0
0 1 0
0 2 0
1 0 0
1 1 1
1 2 1
2 0 3
2 1 1
2 2 2
2 96 97 0 9
0 0 2
0 1 1
0 2 3
1 0 0
1 1 0
1 2 1
2 0 0
2 1 3
2 2 0
2 16 23 0 9
0 0 0
0 1 0
0 2 0
1 0 3
1 1 0
1 2 1
2 0 3
2 1 1
2 2 2
2 37 64 0 9
0 0 2
0 1 3
0 2 0
1 0 2
1 1 3
1 2 0
2 0 0
2 1 3
2 2 0
2 14 77 0 9
0 0 0
0 1 3
0 2 0
1 0 1
1 1 3
1 2 1
2 0 0
2 1 0
2 2 2
2 16 31 0 9
0 0 1
0 1 0
0 2 0
1 0 2
1 1 0
1 2 3
2 0 2
2 1 2
2 2 0
2 49 84 0 9
0 0 0
0 1 0
0 2 2
1 0 3
1 1 0
1 2 0
2 0 2
2 1 2
2 2 3
2 50 92 0 9
0 0 0
0 1 3
0 2 0
1 0 1
1 1 3
1 2 2
2 0 0
2 1 0
2 2 1
2 26 60 0 9
0 0 0
0 1 3
0 2 1
1 0 3
1 1 0
1 2 0
2 0 2
2 1 0
2 2 2
2 34 68 0 9
0 0 0
0 1 1
0 2 3
1 0 1
1 1 0
1 2 0
2 0 0
2 1 1
2 2 2
2 42 78 0 9
0 0 3
0 1 1
0 2 0
1 0 3
1 1 2
1 2 0
2 0 0
2 1 3
2 2 0
2 47 64 0 9
0 0 2
0 1 3
0 2 1
1 0 0
1 1 0
1 2 2
2 0 0
2 1 0
2 2 3
2 23 40 0 9
0 0 0
0 1 3
0 2 3
1 0 0
1 1 1
1 2 2
2 0 3
2 1 0
2 2 0
2 46 78 0 9
0 0 2
0 1 0
0 2 3
1 0 3
1 1 0
1 2 0
2 0 0
2 1 1
2 2 2
2 26 84 0 9
0 0 0
0 1 3
0 2 1
1 0 3
1 1 0
1 2 1
2 0 2
2 1 0
2 2 0
2 14 39 0 9
0 0 3
0 1 2
0 2 0
1 0 2
1 1 0
1 2 2
2 0 0
2 1 3
2 2 0
2 7 84 0 9
0 0 0
0 1 0
0 2 0
1 0 3
1 1 0
1 2 3
2 0 2
2 1 2
2 2 2
2 14 50 0 9
0 0 1
0 1 3
0 2 0
1 0 0
1 1 2
1 2 3
2 0 0
2 1 1
2 2 0
2 81 86 0 9
0 0 0
0 1 2
0 2 0
1 0 1
1 1 0
1 2 2
2 0 0
2 1 2
2 2 3
2 59 84 0 9
0 0 3
0 1 2
0 2 1
1 0 0
1 1 0
1 2 0
2 0 0
2 1 1
2 2 1
2 22 58 0 9
0 0 1
0 1 0
0 2 1
1 0 3
1 1 0
1 2 1
2 0 0
2 1 0
2 2 2
2 25 78 0 9
0 0 2
0 1 3
0 2 0
1 0 1
1 1 3
1 2 1
2 0 0
2 1 0
2 2 0
2 3 75 0 9
0 0 3
0 1 3
0 2 0
1 0 0
1 1 0
1 2 1
2 0 0
2 1 3
2 2 1
2 1 57 0 9
0 0 1
0 1 0
0 2 3
1 0 1
1 1 1
1 2 0
2 0 1
2 1 0
2 2 0
2 6 24 0 9
0 0 0
0 1 2
0 2 2
1 0 3
1 1 2
1 2 0
2 0 0
2 1 3
2 2 0
2 62 85 0 9
0 0 0
0 1 2
0 2 1
1 0 0
1 1 3
1 2 3
2 0 1
2 1 0
2 2 0
2 68 80 0 9
0 0 0
0 1 3
0 2 3
1 0 1
1 1 0
1 2 1
2 0 3
2 1 0
2 2 0
2 58 61 0 9
0 0 1
0 1 0
0 2 2
1 0 0
1 1 3
1 2 3
2 0 2
2 1 0
2 2 0
2 20 28 0 9
0 0 0
0 1 2
0 2 0
1 0 3
1 1 2
1 2 2
2 0 1
2 1 0
2 2 0
2 9 68 0 9
0 0 0
0 1 3
0 2 1
1 0 0
1 1 3
1 2 0
2 0 0
2 1 2
2 2 2
2 13 51 0 9
0 0 2
0 1 2
0 2 0
1 0 2
1 1 2
1 2 0
2 0 0
2 1 0
2 2 3
2 8 86 0 9
0 0 2
0 1 0
0 2 0
1 0 3
1 1 3
1 2 1
2 0 3
2 1 0
2 2 0
2 80 90 0 9
0 0 0
0 1 3
0 2 2
1 0 3
1 1 0
1 2 1
2 0 0
2 1 0
2 2 2
2 4 36 0 9
0 0 1
0 1 0
0 2 0
1 0 3
1 1 1
1 2 1
2 0 0
2 1 0
2 2 2
2 2 23 0 9
0 0 0
0 1 2
0 2 3
1 0 0
1 1 3
1 2 0
2 0 0
2 1 1
2 2 2
2 8 71 0 9
0 0 2
0 1 3
0 2 1
1 0 2
1 1 0
1 2 0
2 0 0
2 1 3
2 2 0
2 3 30 0 9
0 0 1
0 1 1
0 2 1
1 0 0
1 1 0
1 2 1
2 0 0
2 1 0
2 2 2
2 78 96 0 9
0 0 0
0 1 0
0 2 0
1 0 1
1 1 1
1 2 1
2 0 1
2 1 0
2 2 3
2 32 70 0 9
0 0 0
0 1 0
0 2 3
1 0 1
1 1 3
1 2 0
2 0 2
2 1 0
2 2 3
2 23 24 0 9
0 0 0
0 1 0
0 2 1
1 0 1
1 1 0
1 2 1
2 0 0
2 1 3
2 2 1
2 54 68 0 9
0 0 3
0 1 3
0 2 3
1 0 2
1 1 1
1 2 0
2 0 0
2 1 0
2 2 0
2 7 76 0 9
0 0 3
0 1 2
0 2 0
1 0 3
1 1 0
1 2 3
2 0 0
2 1 0
2 2 1
2 75 84 0 9
0 0 0
0 1 2
0 2 0
1 0 2
1 1 2
1 2 2
2 0 0
2 1 1
2 2 0
2 22 65 0 9
0 0 0
0 1 0
0 2 3
1 0 3
1 1 0
1 2 1
2 0 2
2 1 1
2 2 0
2 5 64 0 9
0 0 1
0 1 0
0 2 0
1 0 3
1 1 3
1 2 0
2 0 0
2 1 3
2 2 2
2 4 56 0 9
0 0 3
0 1 3
0 2 0
1 0 0
1 1 0
1 2 2
2 0 2
2 1 0
2 2 1
2 0 88 0 9
0 0 3
0 1 0
0 2 0
1 0 2
1 1 2
1 2 2
2 0 0
2 1 2
2 2 0
2 12 32 0 9
0 0 2
0 1 0
0 2 0
1 0 2
1 1 3
1 2 0
2 0 2
2 1 0
2 2 1
2 15 98 0 9
0 0 0
0 1 0
0 2 2
1 0 0
1 1 2
1 2 2
2 0 1
2 1 0
2 2 2
2 2 49 0 9
0 0 3
0 1 0
0 2 0
1 0 1
1 1 0
1 2 1
2 0 0
2 1 3
2 2 3
2 21 27 0 9
0 0 0
0 1 0
0 2 1
1 0 3
1 1 0
1 2 2
2 0 0
2 1 2
2 2 3
2 31 97 0 9
0 0 0
0 1 0
0 2 1
1 0 2
1 1 0
1 2 0
2 0 2
2 1 2
2 2 3
2 14 44 0 9
0 0 0
0 1 2
0 2 3
1 0 0
1 1 0
1 2 0
2 0 1
2 1 1
2 2 3
2 5 70 0 9
0 0 0
0 1 2
0 2 3
1 0 0
1 1 1
1 2 0
2 0 3
2 1 0
2 2 1
2 19 43 0 9
0 0 1
0 1 3
0 2 0
1 0 3
1 1 0
1 2 3
2 0 0
2 1 3
2 2 0
2 8 26 0 9
0 0 0
0 1 2
0 2 1
1 0 0
1 1 0
1 2 1
2 0 0
2 1 1
2 2 2
2 22 90 0 9
0 0 0
0 1 0
0 2 2
1 0 0
1 1 2
1 2 1
2 0 1
2 1 0
2 2 3
2 4 16 0 9
0 0 0
0 1 1
0 2 3
1 0 0
1 1 0
1 2 1
2 0 2
2 1 0
2 2 1
2 2 88 0 9
0 0 1
0 1 0
0 2 3
1 0 1
1 1 2
1 2 3
2 0 0
2 1 0
2 2 0
2 49 52 0 9
0 0 0
0 1 0
0 2 1
1 0 2
1 1 2
1 2 2
2 0 0
2 1 1
2 2 0
2 18 91 0 9
0 0 0
0 1 2
0 2 0
1 0 3
1 1 0
1 2 3
2 0 0
2 1 2
2 2 2
2 23 60 0 9
0 0 0
0 1 3
0 2 0
1 0 1
1 1 2
1 2 0
2 0 3
2 1 3
2 2 0
2 49 75 0 9
0 0 0
0 1 1
0 2 0
1 0 2
1 1 0
1 2 1
2 0 1
2 1 3
2 2 0
2 2 89 0 9
0 0 0
0 1 2
0 2 2
1 0 0
1 1 0
1 2 0
2 0 3
2 1 3
2 2 3
2 14 52 0 9
0 0 0
0 1 1
0 2 1
1 0 1
1 1 0
1 2 0
2 0 0
2 1 3
2 2 2
2 8 17 0 9
0 0 0
0 1 2
0 2 3
1 0 0
1 1 2
1 2 2
2 0 0
2 1 2
2 2 0
2 74 85 0 9
0 0 0
0 1 1
0 2 2
1 0 0
1 1 0
1 2 2
2 0 0
2 1 3
2 2 2
2 48 54 0 9
0 0 1
0 1 0
0 2 0
1 0 3
1 1 2
1 2 0
2 0 3
2 1 2
2 2 0
2 2 31 0 9
0 0 1
0 1 0
0 2 0
1 0 1
1 1 0
1 2 2
2 0 2
2 1 3
2 2 0
2 17 32 0 9
0 0 2
0 1 0
0 2 2
1 0 0
1 1 2
1 2 2
2 0 0
2 1 2
2 2 0
2 31 45 0 9
0 0 0
0 1 0
0 2 3
1 0 0
1 1 2
1 2 3
2 0 2
2 1 0
2 2 1
2 2 58 0 9
0 0 1
0 1 1
0 2 0
1 0 3
1 1 0
1 2 3
2 0 0
2 1 0
2 2 1
2 47 96 0 9
0 0 0
0 1 1
0 2 2
1 0 1
1 1 1
1 2 3
2 0 0
2 1 0
2 2 0
2 37 92 0 9
0 0 3
0 1 0
0 2 0
1 0 0
1 1 0
1 2 2
2 0 3
2 1 1
2 2 1
2 38 77 0 9
0 0 0
0 1 0
0 2 1
1 0 1
1 1 3
1 2 1
2 0 0
2 1 3
2 2 0
2 26 28 0 9
0 0 0
0 1 0
0 2 3
1 0 3
1 1 1
1 2 0
2 0 1
2 1 2
2 2 0
2 42 50 0 9
0 0 2
0 1 0
0 2 1
1 0 2
1 1 0
1 2 0
2 0 0
2 1 1
2 2 2
2 38 49 0 9
0 0 2
0 1 3
0 2 0
1 0 0
1 1 0
1 2 2
2 0 0
2 1 1
2 2 2
2 65 73 0 9
0 0 0
0 1 0
0 2 1
1 0 1
1 1 0
1 2 1
2 0 0
2 1 2
2 2 1
2 32 69 0 9
0 0 3
0 1 3
0 2 0
1 0 0
1 1 0
1 2 1
2 0 0
2 1 1
2 2 1
2 51 54 0 9
0 0 1
0 1 0
0 2 3
1 0 0
1 1 2
1 2 0
2 0 1
2 1 0
2 2 3
2 78 87 0 9
0 0 3
0 1 0
0 2 1
1 0 3
1 1 0
1 2 0
2 0 1
2 1 3
2 2 0
2 18 57 0 9
0 0 3
0 1 3
0 2 3
1 0 1
1 1 0
1 2 0
2 0 2
2 1 0
2 2 0
2 41 97 0 9
0 0 0
0 1 1
0 2 1
1 0 3
1 1 0
1 2 2
2 0 2
2 1 0
2 2 0
2 33 86 0 9
0 0 0
0 1 0
0 2 0
1 0 1
1 1 2
1 2 3
2 0 3
2 1 0
2 2 3
2 41 68 0 9
0 0 0
0 1 0
0 2 0
1 0 1
1 1 3
1 2 3
2 0 3
2 1 1
2 2 0
2 65 99 0 9
0 0 2
0 1 0
0 2 3
1 0 3
1 1 0
1 2 3
2 0 2
2 1 0
2 2 0
2 26 74 0 9
0 0 0
0 1 0
0 2 3
1 0 1
1 1 0
1 2 0
2 0 3
2 1 1
2 2 3
2 63 83 0 9
0 0 0
0 1 0
0 2 3
1 0 0
1 1 1
1 2 3
2 0 2
2 1 0
2 2 2
2 10 58 0 9
0 0 0
0 1 0
0 2 3
1 0 0
1 1 2
1 2 1
2 0 2
2 1 0
2 2 2
2 12 50 0 9
0 0 0
0 1 1
0 2 1
1 0 3
1 1 0
1 2 3
2 0 0
2 1 1
2 2 0
2 74 92 0 9
0 0 3
0 1 0
0 2 2
1 0 2
1 1 0
1 2 0
2 0 1
2 1 0
2 2 3
2 17 24 0 9
0 0 0
0 1 0
0 2 1
1 0 0
1 1 2
1 2 0
2 0 2
2 1 1
2 2 2
2 0 72 0 9
0 0 3
0 1 3
0 2 2
1 0 0
1 1 2
1 2 0
2 0 0
2 1 0
2 2 1
2 14 68 0 9
0 0 0
0 1 0
0 2 3
1 0 3
1 1 0
1 2 3
2 0 0
2 1 1
2 2 2
2 37 61 0 9
0 0 2
0 1 0
0 2 0
1 0 1
1 1 2
1 2 0
2 0 3
2 1 0
2 2 2
2 32 71 0 9
0 0 2
0 1 0
0 2 1
1 0 0
1 1 2
1 2 3
2 0 0
2 1 0
2 2 1
2 5 48 0 9
0 0 0
0 1 3
0 2 0
1 0 2
1 1 0
1 2 0
2 0 1
2 1 3
2 2 1
2 72 96 0 9
0 0 1
0 1 3
0 2 1
1 0 0
1 1 0
1 2 0
2 0 3
2 1 2
2 2 0
2 43 66 0 9
0 0 2
0 1 0
0 2 1
1 0 2
1 1 0
1 2 1
2 0 2
2 1 0
2 2 0
2 26 37 0 9
0 0 0
0 1 3
0 2 2
1 0 0
1 1 1
1 2 0
2 0 0
2 1 2
2 2 3
2 19 66 0 9
0 0 1
0 1 0
0 2 0
1 0 2
1 1 3
1 2 1
2 0 3
2 1 0
2 2 0
2 28 36 0 9
0 0 3
0 1 2
0 2 0
1 0 2
1 1 1
1 2 1
2 0 0
2 1 0
2 2 0
2 53 97 0 9
0 0 0
0 1 0
0 2 2
1 0 2
1 1 3
1 2 3
2 0 0
2 1 0
2 2 1
2 88 93 0 9
0 0 2
0 1 1
0 2 0
1 0 1
1 1 1
1 2 0
2 0 0
2 1 0
2 2 2
2 28 81 0 9
0 0 0
0 1 0
0 2 2
1 0 2
1 1 2
1 2 1
2 0 1
2 1 0
2 2 0
2 31 69 0 9
0 0 3
0 1 0
0 2 0
1 0 3
1 1 2
1 2 1
2 0 0
2 1 2
2 2 0
2 2 91 0 9
0 0 3
0 1 0
0 2 1
1 0 0
1 1 0
1 2 3
2 0 0
2 1 3
2 2 3
2 87 91 0 9
0 0 2
0 1 3
0 2 0
1 0 0
1 1 0
1 2 0
2 0 3
2 1 3
2 2 1
2 1 95 0 9
0 0 0
0 1 2
0 2 0
1 0 0
1 1 2
1 2 1
2 0 0
2 1 2
2 2 1
2 23 52 0 9
0 0 3
0 1 0
0 2 1
1 0 3
1 1 0
1 2 2
2 0 0
2 1 0
2 2 2
2 6 8 0 9
0 0 0
0 1 1
0 2 2
1 0 0
1 1 0
1 2 1
2 0 2
2 1 3
2 2 0
2 8 47 0 9
0 0 0
0 1 3
0 2 0
1 0 3
1 1 0
1 2 0
2 0 2
2 1 3
2 2 1
2 58 87 0 9
0 0 0
0 1 1
0 2 1
1 0 3
1 1 0
1 2 1
2 0 0
2 1 2
2 2 0
2 15 52 0 9
0 0 0
0 1 1
0 2 2
1 0 2
1 1 0
1 2 3
2 0 0
2 1 0
2 2 3
2 20 42 0 9
0 0 0
0 1 1
0 2 0
1 0 1
1 1 3
1 2 0
2 0 1
2 1 1
2 2 0
2 18 32 0 9
0 0 1
0 1 0
0 2 1
1 0 3
1 1 0
1 2 1
2 0 1
2 1 0
2 2 0
2 7 96 0 9
0 0 3
0 1 0
0 2 2
1 0 1
1 1 1
1 2 0
2 0 1
2 1 0
2 2 0
2 18 61 0 9
0 0 3
0 1 3
0 2 0
1 0 1
1 1 0
1 2 3
2 0 0
2 1 0
2 2 1
2 38 71 0 9
0 0 0
0 1 3
0 2 2
1 0 2
1 1 0
1 2 2
2 0 0
2 1 0
2 2 3
2 19 28 0 9
0 0 1
0 1 0
0 2 2
1 0 0
1 1 0
1 2 3
2 0 1
2 1 0
2 2 1
2 59 69 0 9
0 0 1
0 1 1
0 2 2
1 0 0
1 1 0
1 2 1
2 0 0
2 1 3
2 2 0
2 44 75 0 9
0 0 3
0 1 0
0 2 2
1 0 2
1 1 0
1 2 1
2 0 0
2 1 3
2 2 0
2 70 71 0 9
0 0 3
0 1 0
0 2 1
1 0 0
1 1 0
1 2 0
2 0 1
2 1 3
2 2 1
2 4 71 0 9
0 0 3
0 1 0
0 2 0
1 0 1
1 1 1
1 2 2
2 0 0
2 1 0
2 2 2
2 62 78 0 9
0 0 2
0 1 1
0 2 0
1 0 2
1 1 0
1 2 0
2 0 2
2 1 3
2 2 0
2 14 55 0 9
0 0 0
0 1 2
0 2 1
1 0 1
1 1 2
1 2 0
2 0 0
2 1 0
2 2 3
2 1 51 0 9
0 0 0
0 1 3
0 2 2
1 0 3
1 1 0
1 2 1
2 0 0
2 1 2
2 2 0
2 13 73 0 9
0 0 1
0 1 3
0 2 0
1 0 0
1 1 2
1 2 1
2 0 3
2 1 0
2 2 0
2 14 26 0 9
0 0 0
0 1 3
0 2 1
1 0 1
1 1 0
1 2 0
2 0 3
2 1 1
2 2 0
2 9 40 0 9
0 0 0
0 1 0
0 2 0
1 0 1
1 1 1
1 2 0
2 0 2
2 1 3
2 2 3
2 72 82 0 9
0 0 1
0 1 0
0 2 1
1 0 0
1 1 3
1 2 0
2 0 3
2 1 0
2 2 3
2 44 70 0 9
0 0 0
0 1 2
0 2 0
1 0 0
1 1 1
1 2 2
2 0 0
2 1 3
2 2 2
2 56 86 0 9
0 0 0
0 1 1
0 2 0
1 0 3
1 1 0
1 2 1
2 0 0
2 1 3
2 2 3
2 27 37 0 9
0 0 1
0 1 1
0 2 0
1 0 0
1 1 3
1 2 0
2 0 0
2 1 1
2 2 2
2 1 73 0 9
0 0 0
0 1 0
0 2 0
1 0 2
1 1 1
1 2 3
2 0 1
2 1 0
2 2 2
2 49 67 0 9
0 0 3
0 1 0
0 2 2
1 0 1
1 1 0
1 2 0
2 0 0
2 1 1
2 2 3
2 27 41 0 9
0 0 0
0 1 0
0 2 1
1 0 3
1 1 0
1 2 3
2 0 3
2 1 0
2 2 3
2 83 94 0 9
0 0 3
0 1 3
0 2 1
1 0 0
1 1 0
1 2 2
2 0 0
2 1 2
2 2 0
2 6 93 0 9
0 0 0
0 1 0
0 2 1
1 0 3
1 1 2
1 2 0
2 0 0
2 1 3
2 2 1
2 50 52 0 9
0 0 2
0 1 0
0 2 0
1 0 3
1 1 0
1 2 1
2 0 0
2 1 1
2 2 3
2 1 41 0 9
0 0 2
0 1 0
0 2 2
1 0 2
1 1 0
1 2 0
2 0 0
2 1 1
2 2 2
2 13 27 0 9
0 0 3
0 1 3
0 2 0
1 0 0
1 1 0
1 2 0
2 0 2
2 1 2
2 2 2
2 47 50 0 9
0 0 0
0 1 0
0 2 3
1 0 1
1 1 0
1 2 0
2 0 3
2 1 3
2 2 1
1 0 512409557603043100 3
0 0
1 2
2 1
1 1 512409557603043100 3
0 0
1 3
2 1
1 2 512409557603043100 3
0 0
1 1
2 2
1 3 512409557603043100 3
0 0
1 0
2 1
1 4 512409557603043100 3
0 0
1 0
2 2
1 5 512409557603043100 3
0 0
1 3
2 0
1 6 512409557603043100 3
0 3
1 0
2 2
1 7 512409557603043100 3
0 0
1 0
2 0
1 8 512409557603043100 3
0 0
1 3
2 3
1 9 512409557603043100 3
0 0
1 2
2 1
1 10 512409557603043100 3
0 3
1 0
2 1
1 11 512409557603043100 3
0 0
1 1
2 0
1 12 512409557603043100 3
0 0
1 1
2 1
1 13 512409557603043100 3
0 2
1 0
2 1
1 14 512409557603043100 3
0 1
1 0
2 1
1 15 512409557603043100 3
0 0
1 0
2 2
1 16 512409557603043100 3
0 0
1 0
2 1
1 17 512409557603043100 3
0 1
1 2
2 0
1 18 512409557603043100 3
0 2
1 0
2 2
1 19 512409557603043100 3
0 0
1 0
2 0
1 20 512409557603043100 3
0 1
1 0
2 3
1 21 512409557603043100 3
0 1
1 0
2 1
1 22 512409557603043100 3
0 3
1 2
2 0
1 23 512409557603043100 3
0 0
1 1
2 0
1 24 512409557603043100 3
0 0
1 0
2 0
1 25 512409557603043100 3
0 0
1 0
2 0
1 26 512409557603043100 3
0 0
1 2
2 2
1 27 512409557603043100 3
0 3
1 0
2 3
1 28 512409557603043100 3
0 1
1 2
2 0
1 29 512409557603043100 3
0 0
1 1
2 2
1 30 512409557603043100 3
0 2
1 0
2 0
1 31 512409557603043100 3
0 1
1 0
2 0
1 32 512409557603043100 3
0 2
1 0
2 3
1 33 512409557603043100 3
0 2
1 1
2 0
1 34 512409557603043100 3
0 0
1 0
2 0
1 35 512409557603043100 3
0 1
1 1
2 0
1 36 512409557603043100 3
0 3
1 0
2 3
1 37 512409557603043100 3
0 1
1 0
2 2
1 38 512409557603043100 3
0 1
1 2
2 0
1 39 512409557603043100 3
0 3
1 2
2 0
1 40 512409557603043100 3
0 1
1 0
2 2
1 41 512409557603043100 3
0 0
1 2
2 1
1 42 512409557603043100 3
0 2
1 3
2 0
1 43 512409557603043100 3
0 1
1 0
2 0
1 44 512409557603043100 3
0 1
1 1
2 0
1 45 512409557603043100 3
0 0
1 2
2 2
1 46 512409557603043100 3
0 3
1 0
2 0
1 47 512409557603043100 3
0 0
1 0
2 2
1 48 512409557603043100 3
0 0
1 1
2 2
1 49 512409557603043100 3
0 0
1 1
2 0
1 50 512409557603043100 3
0 0
1 1
2 2
1 51 512409557603043100 3
0 3
1 3
2 0
1 52 512409557603043100 3
0 1
1 2
2 0
1 53 512409557603043100 3
0 3
1 0
2 2
1 54 512409557603043100 3
0 0
1 0
2 3
1 55 512409557603043100 3
0 0
1 0
2 2
1 56 512409557603043100 3
0 2
1 3
2 0
1 57 512409557603043100 3
0 2
1 0
2 2
1 58 512409557603043100 3
0 1
1 0
2 2
1 59 512409557603043100 3
0 2
1 3
2 0
1 60 512409557603043100 3
0 1
1 0
2 1
1 61 512409557603043100 3
0 0
1 1
2 2
1 62 512409557603043100 3
0 1
1 0
2 1
1 63 512409557603043100 3
0 2
1 0
2 2
1 64 512409557603043100 3
0 0
1 1
2 2
1 65 512409557603043100 3
0 2
1 1
2 0
1 66 512409557603043100 3
0 2
1 2
2 0
1 67 512409557603043100 3
0 1
1 1
2 0
1 68 512409557603043100 3
0 0
1 0
2 0
1 69 512409557603043100 3
0 2
1 0
2 0
1 70 512409557603043100 3
0 0
1 3
2 3
1 71 512409557603043100 3
0 0
1 3
2 0
1 72 512409557603043100 3
0 2
1 0
2 2
1 73 512409557603043100 3
0 2
1 0
2 3
1 74 512409557603043100 3
0 0
1 0
2 0
1 75 512409557603043100 3
0 0
1 3
2 3
1 76 512409557603043100 3
0 0
1 1
2 0
1 77 512409557603043100 3
0 0
1 1
2 3
1 78 512409557603043100 3
0 0
1 1
2 1
1 79 512409557603043100 3
0 3
1 0
2 3
1 80 512409557603043100 3
0 0
1 1
2 1
1 81 512409557603043100 3
0 2
1 0
2 2
1 82 512409557603043100 3
0 0
1 2
2 1
1 83 512409557603043100 3
0 0
1 3
2 0
1 84 512409557603043100 3
0 1
1 2
2 0
1 85 512409557603043100 3
0 3
1 0
2 3
1 86 512409557603043100 3
0 0
1 0
2 1
1 87 512409557603043100 3
0 3
1 3
2 0
1 88 512409557603043100 3
0 1
1 3
2 0
1 89 512409557603043100 3
0 1
1 1
2 0
1 90 512409557603043100 3
0 0
1 1
2 0
1 91 512409557603043100 3
0 0
1 2
2 1
1 92 512409557603043100 3
0 1
1 0
2 1
1 93 512409557603043100 3
0 2
1 3
2 0
1 94 512409557603043100 3
0 2
1 1
2 0
1 95 512409557603043100 3
0 0
1 1
2 2
1 96 512409557603043100 3
0 1
1 2
2 0
1 97 512409557603043100 3
0 3
1 0
2 1
1 98 512409557603043100 3
0 0
1 1
2 1
1 99 512409557603043100 3
0 0
1 2
2 1
0 48 0
